NAME : X_18_seed_123_id_12
TYPE : CVRP
DIMENSION : 181
EDGE_WEIGHT_TYPE : EUC_2D
CAPACITY : 8
NODE_COORD_SECTION
1	165	459
2	98	646
3	596	102
4	66	104
5	874	575
6	497	547
7	931	750
8	534	160
9	44	21
10	107	613
11	80	631
12	41	90
13	85	690
14	42	55
15	531	3
16	530	459
17	456	517
18	630	513
19	587	92
20	38	633
21	561	323
22	533	59
23	914	739
24	598	105
25	920	691
26	54	108
27	105	573
28	924	789
29	111	163
30	497	18
31	699	71
32	783	461
33	955	665
34	535	453
35	472	596
36	526	470
37	168	774
38	507	144
39	73	662
40	73	72
41	670	62
42	856	843
43	552	78
44	77	79
45	840	563
46	617	150
47	121	760
48	687	208
49	879	645
50	114	681
51	632	58
52	969	452
53	158	182
54	912	631
55	96	614
56	37	92
57	123	158
58	868	616
59	101	152
60	901	706
61	953	739
62	11	98
63	193	121
64	290	692
65	515	490
66	120	224
67	536	555
68	110	60
69	697	661
70	416	457
71	690	37
72	853	584
73	857	655
74	528	145
75	980	774
76	579	610
77	594	540
78	906	714
79	464	593
80	36	119
81	998	691
82	233	711
83	70	624
84	33	23
85	401	401
86	906	598
87	894	493
88	822	763
89	900	496
90	988	846
91	586	67
92	659	43
93	808	672
94	969	839
95	883	603
96	941	791
97	603	108
98	627	48
99	34	226
100	163	68
101	796	644
102	816	580
103	472	428
104	507	68
105	492	452
106	784	559
107	17	104
108	529	573
109	471	447
110	648	52
111	659	85
112	91	643
113	943	751
114	92	220
115	592	286
116	584	117
117	908	622
118	835	579
119	102	619
120	632	72
121	58	784
122	624	480
123	54	170
124	177	123
125	831	611
126	579	140
127	62	670
128	551	31
129	97	611
130	360	544
131	526	198
132	639	98
133	431	607
134	474	638
135	493	534
136	66	29
137	486	589
138	860	610
139	967	482
140	562	553
141	573	172
142	151	652
143	24	541
144	938	772
145	97	587
146	637	491
147	619	513
148	760	574
149	866	607
150	701	596
151	100	124
152	916	700
153	493	540
154	926	578
155	126	571
156	38	152
157	851	536
158	181	64
159	653	104
160	882	703
161	491	507
162	89	178
163	62	68
164	912	796
165	77	681
166	502	594
167	570	83
168	514	561
169	48	159
170	798	662
171	761	678
172	501	108
173	619	97
174	123	608
175	147	557
176	206	556
177	47	55
178	552	93
179	588	97
180	890	798
181	517	552
DEMAND_SECTION
1	0
2	1
3	1
4	1
5	1
6	1
7	1
8	1
9	1
10	1
11	1
12	1
13	1
14	1
15	1
16	1
17	1
18	1
19	1
20	1
21	1
22	1
23	1
24	1
25	1
26	1
27	1
28	1
29	1
30	1
31	1
32	1
33	1
34	1
35	1
36	1
37	1
38	1
39	1
40	1
41	1
42	1
43	1
44	1
45	1
46	1
47	1
48	1
49	1
50	1
51	1
52	1
53	1
54	1
55	1
56	1
57	1
58	1
59	1
60	1
61	1
62	1
63	1
64	1
65	1
66	1
67	1
68	1
69	1
70	1
71	1
72	1
73	1
74	1
75	1
76	1
77	1
78	1
79	1
80	1
81	1
82	1
83	1
84	1
85	1
86	1
87	1
88	1
89	1
90	1
91	1
92	1
93	1
94	1
95	1
96	1
97	1
98	1
99	1
100	1
101	1
102	1
103	1
104	1
105	1
106	1
107	1
108	1
109	1
110	1
111	1
112	1
113	1
114	1
115	1
116	1
117	1
118	1
119	1
120	1
121	1
122	1
123	1
124	1
125	1
126	1
127	1
128	1
129	1
130	1
131	1
132	1
133	1
134	1
135	1
136	1
137	1
138	1
139	1
140	1
141	1
142	1
143	1
144	1
145	1
146	1
147	1
148	1
149	1
150	1
151	1
152	1
153	1
154	1
155	1
156	1
157	1
158	1
159	1
160	1
161	1
162	1
163	1
164	1
165	1
166	1
167	1
168	1
169	1
170	1
171	1
172	1
173	1
174	1
175	1
176	1
177	1
178	1
179	1
180	1
181	1
DEPOT_SECTION
1
-1
EOF
